words_hard_train/5571.qaiger
aag 92 16 0 1 76
2
4
8
12
16
20
28
32
40
50
58
74
90
106
160
162
185
6 3 5
10 6 9
14 10 13
18 14 17
22 19 20
24 18 21
26 23 25
30 26 28
34 25 32
36 24 33
38 35 37
42 39 41
44 38 40
46 43 45
48 31 47
52 50 2
54 2 4
56 55 7
60 57 59
62 56 58
64 61 63
66 52 64
68 67 63
70 7 8
72 71 11
76 73 75
78 72 74
80 77 79
82 69 80
84 83 79
86 11 12
88 87 15
92 89 91
94 88 90
96 93 95
98 85 96
100 99 95
102 15 16
104 103 19
108 105 107
110 104 106
112 109 111
114 101 112
116 115 111
118 27 29
120 119 31
122 116 121
124 49 123
126 117 120
128 124 127
130 53 65
132 131 67
134 68 81
136 135 83
138 132 136
140 100 113
142 141 115
144 139 143
146 84 97
148 147 99
150 144 149
152 128 151
154 127 31
156 155 46
158 152 157
164 160 162
166 161 163
168 165 167
170 168 37
172 169 36
174 171 173
176 157 45
178 174 177
180 175 176
182 179 181
184 159 182
i0 2 y1[0]
i1 2 y1[1]
i2 2 y1[2]
i3 2 y1[3]
i4 2 y1[4]
i5 2 y1[5]
i6 1 x2[2]
i7 2 y1[6]
i8 1 x2[1]
i9 1 x2[7]
i10 1 x2[6]
i11 1 x2[5]
i12 1 x2[4]
i13 1 x2[3]
i14 1 x2[0]
i15 2 y1[7]
o0 bv[0]
c
simplified
  <=
    add
      116
      -142
    subtract
      reverse
        1 x2
      2 y1
