words_hard_train/5571.qaiger.qdimacs
p cnf 92 229
a 37 45 14 80 20 53 25 29 0
e 1 2 3 4 5 6 7 8 9 10 11 12 13 15 16 17 18 19 21 22 23 24 26 27 28 30 31 32 33 34 35 36 38 39 40 41 42 43 44 46 47 48 49 50 51 52 54 55 56 57 58 59 60 61 62 63 64 65 66 67 68 69 70 71 72 73 74 75 76 77 78 79 81 82 83 84 85 86 87 88 89 90 91 92 0
1 2 3 0
-1 -3 0
-2 -3 0
-3 4 5 0
3 -5 0
-4 -5 0
-5 6 7 0
5 -7 0
-6 -7 0
-7 8 9 0
7 -9 0
-8 -9 0
9 -10 11 0
-9 -11 0
10 -11 0
-9 10 12 0
9 -12 0
-10 -12 0
11 12 13 0
-11 -13 0
-12 -13 0
-13 -14 15 0
13 -15 0
14 -15 0
12 -16 17 0
-12 -17 0
16 -17 0
-12 16 18 0
12 -18 0
-16 -18 0
17 18 19 0
-17 -19 0
-18 -19 0
19 20 21 0
-19 -21 0
-20 -21 0
-19 -20 22 0
19 -22 0
20 -22 0
21 22 23 0
-21 -23 0
-22 -23 0
15 23 24 0
-15 -24 0
-23 -24 0
-25 -1 26 0
25 -26 0
1 -26 0
-1 -2 27 0
1 -27 0
2 -27 0
27 3 28 0
-27 -28 0
-3 -28 0
28 29 30 0
-28 -30 0
-29 -30 0
-28 -29 31 0
28 -31 0
29 -31 0
30 31 32 0
-30 -32 0
-31 -32 0
-26 -32 33 0
26 -33 0
32 -33 0
33 31 34 0
-33 -34 0
-31 -34 0
3 -4 35 0
-3 -35 0
4 -35 0
35 5 36 0
-35 -36 0
-5 -36 0
36 37 38 0
-36 -38 0
-37 -38 0
-36 -37 39 0
36 -39 0
37 -39 0
38 39 40 0
-38 -40 0
-39 -40 0
34 -40 41 0
-34 -41 0
40 -41 0
41 39 42 0
-41 -42 0
-39 -42 0
5 -6 43 0
-5 -43 0
6 -43 0
43 7 44 0
-43 -44 0
-7 -44 0
44 45 46 0
-44 -46 0
-45 -46 0
-44 -45 47 0
44 -47 0
45 -47 0
46 47 48 0
-46 -48 0
-47 -48 0
42 -48 49 0
-42 -49 0
48 -49 0
49 47 50 0
-49 -50 0
-47 -50 0
7 -8 51 0
-7 -51 0
8 -51 0
51 9 52 0
-51 -52 0
-9 -52 0
52 53 54 0
-52 -54 0
-53 -54 0
-52 -53 55 0
52 -55 0
53 -55 0
54 55 56 0
-54 -56 0
-55 -56 0
50 -56 57 0
-50 -57 0
56 -57 0
57 55 58 0
-57 -58 0
-55 -58 0
13 14 59 0
-13 -59 0
-14 -59 0
59 15 60 0
-59 -60 0
-15 -60 0
-58 60 61 0
58 -61 0
-60 -61 0
24 61 62 0
-24 -62 0
-61 -62 0
58 -60 63 0
-58 -63 0
60 -63 0
-62 63 64 0
62 -64 0
-63 -64 0
26 32 65 0
-26 -65 0
-32 -65 0
65 33 66 0
-65 -66 0
-33 -66 0
-34 40 67 0
34 -67 0
-40 -67 0
67 41 68 0
-67 -68 0
-41 -68 0
-66 -68 69 0
66 -69 0
68 -69 0
-50 56 70 0
50 -70 0
-56 -70 0
70 57 71 0
-70 -71 0
-57 -71 0
69 71 72 0
-69 -72 0
-71 -72 0
-42 48 73 0
42 -73 0
-48 -73 0
73 49 74 0
-73 -74 0
-49 -74 0
-72 74 75 0
72 -75 0
-74 -75 0
-64 75 76 0
64 -76 0
-75 -76 0
63 15 77 0
-63 -77 0
-15 -77 0
77 -23 78 0
-77 -78 0
23 -78 0
-76 78 79 0
76 -79 0
-78 -79 0
-80 -81 82 0
80 -82 0
81 -82 0
80 81 83 0
-80 -83 0
-81 -83 0
82 83 84 0
-82 -84 0
-83 -84 0
-84 18 85 0
84 -85 0
-18 -85 0
84 -18 86 0
-84 -86 0
18 -86 0
85 86 87 0
-85 -87 0
-86 -87 0
78 22 88 0
-78 -88 0
-22 -88 0
-87 88 89 0
87 -89 0
-88 -89 0
87 -88 90 0
-87 -90 0
88 -90 0
89 90 91 0
-89 -91 0
-90 -91 0
79 -91 92 0
-79 -92 0
91 -92 0
-92 0
